
1.00000000
   2.85595465    0.00000000    0.00000000
   1.42797732    2.47332928    0.00000000
   0.00000000    1.64888618   18.80501764
Al 
8 
Direct
   0.00000000    0.00000000    0.00000000 Al
   0.37466764    0.25066472    0.12400293 Al
   0.74933528    0.50132943    0.24800585 Al
   0.12400293    0.75199415    0.37200878 Al
   0.49867057    0.00265886    0.49601170 Al
   0.87333821    0.25332358    0.62001463 Al
   0.24800585    0.50398830    0.74401755 Al
   0.62267349    0.75465301    0.86802048 Al

