
1.00000000
   2.85595465    0.00000000    0.00000000
   1.42797732    2.47332928    0.00000000
   0.00000000    1.64888618   22.65501764
Al 
8 
Direct
   0.00000000    0.00000000    0.00000000 Al
   0.36764328    0.26471344    0.10292983 Al
   0.73528656    0.52942689    0.20585967 Al
   0.10292983    0.79414033    0.30878950 Al
   0.47057311    0.05885378    0.41171934 Al
   0.83821639    0.32356722    0.51464917 Al
   0.20585967    0.58828066    0.61757900 Al
   0.57350295    0.85299411    0.72050884 Al

