
1.00000000
     2.85595465      0.00000000      0.00000000
     1.42797732      2.47332928      0.00000000
     0.00000000      1.64888618     18.60501764
Al 
8 
Direct
     0.00000000      0.00000000      0.00000000 Al
     0.37511198      0.24977605      0.12533593 Al
     0.75022395      0.49955209      0.25067186 Al
     0.12533593      0.74932814      0.37600779 Al
     0.50044791     -0.00089582      0.50134372 Al
     0.87555988      0.24888023      0.62667965 Al
     0.25067186      0.49865628      0.75201559 Al
     0.62578384      0.74843232      0.87735152 Al

