
1.00000000
   1.59609453    2.76451683    0.00000000
  -1.59609453    2.76451683    0.00000000
   0.79804726    2.76451683   20.73607828
Mg 
8 
Direct
   0.52604170    0.61979170    0.18750000 Mg
   0.28645830    0.31770830    0.06250000 Mg
   0.33854170    0.55729170    0.43750000 Mg
   0.09895830    0.25520830    0.31250000 Mg
   0.15104170    0.49479170    0.68750000 Mg
  -0.08854170    0.19270830    0.56250000 Mg
  -0.03645830    0.43229170    0.93750000 Mg
  -0.27604170    0.13020830    0.81250000 Mg

