
1.00000000
    2.85595465     0.00000000     0.00000000
    1.42797732     2.47332928     0.00000000
    0.00000000     1.64888618    18.50501764
Al 
8 
Direct
    0.00000000     0.00000000     0.00000000 Al
    0.37533775     0.24932451     0.12601324 Al
    0.75067549     0.49864902     0.25202648 Al
    0.12601324     0.74797352     0.37803972 Al
    0.50135098    -0.00270197     0.50405295 Al
    0.87668873     0.24662254     0.63006619 Al
    0.25202648     0.49594705     0.75607943 Al
    0.62736422     0.74527155     0.88209267 Al

