
1.00000000
   2.85595465    0.00000000    0.00000000
   1.42797732    2.47332928    0.00000000
   0.00000000    1.64888618   19.65501764
Al 
8 
Direct
   0.00000000    0.00000000    0.00000000 Al
   0.37288010    0.25423980    0.11864030 Al
   0.74576020    0.50847960    0.23728060 Al
   0.11864030    0.76271940    0.35592090 Al
   0.49152040    0.01695920    0.47456120 Al
   0.86440050    0.27119900    0.59320150 Al
   0.23728060    0.52543880    0.71184180 Al
   0.61016070    0.77967860    0.83048211 Al

