
1.00000000
    1.59609453     2.76451683     0.00000000
   -1.59609453     2.76451683     0.00000000
    0.26601576     1.84301122    20.73607828
Mg 
8 
Direct
    0.58854170     0.61979170     0.18750000 Mg
    0.30729163     0.31770830     0.06250000 Mg
    0.48437503     0.55729170     0.43750000 Mg
    0.20312497     0.25520830     0.31250000 Mg
    0.38020837     0.49479170     0.68750000 Mg
    0.09895830     0.19270830     0.56250000 Mg
    0.27604170     0.43229170     0.93750000 Mg
   -0.00520837     0.13020830     0.81250000 Mg

