
1.00000000
   1.59609453    2.76451683    0.00000000
  -1.59609453    2.76451683    0.00000000
   1.19707090    2.07338762   20.73607828
Mg 
8 
Direct
   0.52604170    0.66666670    0.18750000 Mg
   0.28645830    0.33333330    0.06250000 Mg
   0.33854170    0.66666670    0.43750000 Mg
   0.09895830    0.33333330    0.31250000 Mg
   0.15104170    0.66666670    0.68750000 Mg
  -0.08854170    0.33333330    0.56250000 Mg
  -0.03645830    0.66666670    0.93750000 Mg
  -0.27604170    0.33333330    0.81250000 Mg

