
1.00000000
   2.85595465    0.00000000    0.00000000
   1.42797732    2.47332928    0.00000000
   0.00000000    1.64888618   24.65501764
Al 
8 
Direct
   0.00000000    0.00000000    0.00000000 Al
   0.36486008    0.27027985    0.09458023 Al
   0.72972015    0.54055970    0.18916046 Al
   0.09458023    0.81083954    0.28374069 Al
   0.45944031    0.08111939    0.37832091 Al
   0.82430038    0.35139924    0.47290114 Al
   0.18916046    0.62167909    0.56748137 Al
   0.55402053    0.89195893    0.66206160 Al

