
1.00000000
   1.59609453    2.76451683    0.00000000
  -1.59609453    2.76451683    0.00000000
   0.26601575    4.60752805   20.73607828
Mg 
8 
Direct
   0.49479170    0.52604170    0.18750000 Mg
   0.27604163    0.28645830    0.06250000 Mg
   0.26562503    0.33854170    0.43750000 Mg
   0.04687497    0.09895830    0.31250000 Mg
   0.03645837    0.15104170    0.68750000 Mg
  -0.18229170   -0.08854170    0.56250000 Mg
  -0.19270830   -0.03645830    0.93750000 Mg
  -0.41145837   -0.27604170    0.81250000 Mg

