
1.00000000
   2.85595465    0.00000000    0.00000000
   1.42797732    2.47332928    0.00000000
   0.00000000    1.64888618   18.75501764
Al 
8 
Direct
   0.00000000    0.00000000    0.00000000 Al
   0.37477784    0.25044433    0.12433351 Al
   0.74955567    0.50088865    0.24866702 Al
   0.12433351    0.75133298    0.37300054 Al
   0.49911135    0.00177730    0.49733405 Al
   0.87388919    0.25222163    0.62166756 Al
   0.24866702    0.50266595    0.74600107 Al
   0.62344486    0.75311028    0.87033458 Al

