
1.00000000
   1.59609453    2.76451683    0.00000000
  -1.59609453    2.76451683    0.00000000
   0.13300788    3.91639884   20.73607828
Mg 
8 
Direct
   0.52604170    0.54166670    0.18750000 Mg
   0.28645830    0.29166663    0.06250000 Mg
   0.33854170    0.37500003    0.43750000 Mg
   0.09895830    0.12499997    0.31250000 Mg
   0.15104170    0.20833337    0.68750000 Mg
  -0.08854170   -0.04166670    0.56250000 Mg
  -0.03645830    0.04166670    0.93750000 Mg
  -0.27604170   -0.20833337    0.81250000 Mg

