
1.00000000
    2.85595465     0.00000000     0.00000000
    1.42797732     2.47332928     0.00000000
    0.00000000     1.64888618    18.70501764
Al 
8 
Direct
    0.00000000     0.00000000     0.00000000 Al
    0.37488862     0.25022276     0.12466587 Al
    0.74977724     0.50044551     0.24933173 Al
    0.12466587     0.75066827     0.37399760 Al
    0.49955449     0.00089103     0.49866346 Al
    0.87444311     0.25111378     0.62332933 Al
    0.24933173     0.50133654     0.74799519 Al
    0.62422035     0.75155930     0.87266106 Al

