
1.00000000
   2.85595465    0.00000000    0.00000000
   1.42797732    2.47332928    0.00000000
   0.00000000    1.64888618   19.15501764
Al 
8 
Direct
   0.00000000    0.00000000    0.00000000 Al
   0.37391238    0.25217524    0.12173715 Al
   0.74782476    0.50435047    0.24347429 Al
   0.12173715    0.75652571    0.36521144 Al
   0.49564953    0.00870094    0.48694859 Al
   0.86956191    0.26087618    0.60868574 Al
   0.24347429    0.51305141    0.73042288 Al
   0.61738668    0.76522665    0.85216003 Al

