
1.00000000
   2.85595465    0.00000000    0.00000000
   1.42797732    2.47332928    0.00000000
   0.00000000    1.64888618   20.65501764
Al 
8 
Direct
   0.00000000    0.00000000    0.00000000 Al
   0.37096547    0.25806906    0.11289640 Al
   0.74193094    0.51613813    0.22579281 Al
   0.11289640    0.77420719    0.33868921 Al
   0.48386187    0.03227626    0.45158561 Al
   0.85482734    0.29034532    0.56448202 Al
   0.22579281    0.54841439    0.67737842 Al
   0.59675827    0.80648345    0.79027482 Al

