
1.00000000
   2.85595465    0.00000000    0.00000000
   1.42797732    2.47332928    0.00000000
   0.00000000    1.64888618   19.45501764
Al 
8 
Direct
   0.00000000    0.00000000    0.00000000 Al
   0.37328665    0.25342671    0.11985994 Al
   0.74657329    0.50685342    0.23971988 Al
   0.11985994    0.76028012    0.35957981 Al
   0.49314658    0.01370683    0.47943975 Al
   0.86643323    0.26713354    0.59929969 Al
   0.23971988    0.52056025    0.71915963 Al
   0.61300652    0.77398696    0.83901956 Al

