
1.00000000
    1.59609453     2.76451683     0.00000000
   -1.59609453     2.76451683     0.00000000
   -0.13300788     2.07338762    20.73607828
Mg 
8 
Direct
    0.60416670     0.58854170     0.18750000 Mg
    0.31249997     0.30729163     0.06250000 Mg
    0.52083337     0.48437503     0.43750000 Mg
    0.22916663     0.20312497     0.31250000 Mg
    0.43750003     0.38020837     0.68750000 Mg
    0.14583330     0.09895830     0.56250000 Mg
    0.35416670     0.27604170     0.93750000 Mg
    0.06249997    -0.00520837     0.81250000 Mg

