
1.00000000
   1.59609453    2.76451683    0.00000000
  -1.59609453    2.76451683    0.00000000
   0.26601576    4.14677524   20.73607828
Mg 
8 
Direct
   0.51041670    0.54166670    0.18750000 Mg
   0.28124997    0.29166663    0.06250000 Mg
   0.30208337    0.37500003    0.43750000 Mg
   0.07291663    0.12499997    0.31250000 Mg
   0.09375003    0.20833337    0.68750000 Mg
  -0.13541670   -0.04166670    0.56250000 Mg
  -0.11458330    0.04166670    0.93750000 Mg
  -0.34375003   -0.20833337    0.81250000 Mg

