
1.00000000
     2.85595465      0.00000000      0.00000000
     1.42797732      2.47332928      0.00000000
     0.00000000      1.64888618     18.65501764
Al 
8 
Direct
     0.00000000      0.00000000      0.00000000 Al
     0.37500000      0.25000000      0.12500000 Al
     0.75000000      0.50000000      0.25000000 Al
     0.12500000      0.75000000      0.37500000 Al
     0.50000000     -0.00000000      0.50000000 Al
     0.87500000      0.25000000      0.62500000 Al
     0.25000000      0.50000000      0.75000000 Al
     0.62500000      0.75000000      0.87500000 Al

