
1.00000000
   2.85595465    0.00000000    0.00000000
   1.42797732    2.47332928    0.00000000
   0.00000000    1.64888618   18.95501764
Al 
8 
Direct
   0.00000000    0.00000000    0.00000000 Al
   0.37434054    0.25131891    0.12302163 Al
   0.74868109    0.50263782    0.24604326 Al
   0.12302163    0.75395674    0.36906490 Al
   0.49736218    0.00527565    0.49208653 Al
   0.87170272    0.25659456    0.61510816 Al
   0.24604326    0.50791347    0.73812979 Al
   0.62038381    0.75923238    0.86115142 Al

