
1.00000000
   1.59609453    2.76451683    0.00000000
  -1.59609453    2.76451683    0.00000000
  -1.06406302    1.84301122   20.73607828
Mg 
8 
Direct
   0.66666670    0.54166670    0.18750000 Mg
   0.33333330    0.29166663    0.06250000 Mg
   0.66666670    0.37500003    0.43750000 Mg
   0.33333330    0.12499997    0.31250000 Mg
   0.66666670    0.20833337    0.68750000 Mg
   0.33333330   -0.04166670    0.56250000 Mg
   0.66666670    0.04166670    0.93750000 Mg
   0.33333330   -0.20833337    0.81250000 Mg

