
1.00000000
   1.59609453    2.76451683    0.00000000
  -1.59609453    2.76451683    0.00000000
  -0.66503939    2.07338762   20.73607828
Mg 
8 
Direct
   0.63541670    0.55729170    0.18750000 Mg
   0.32291663    0.29687497    0.06250000 Mg
   0.59375003    0.41145837    0.43750000 Mg
   0.28124997    0.15104163    0.31250000 Mg
   0.55208337    0.26562503    0.68750000 Mg
   0.23958330    0.00520830    0.56250000 Mg
   0.51041670    0.11979170    0.93750000 Mg
   0.19791663   -0.14062503    0.81250000 Mg

