
1.00000000
   2.85595465    0.00000000    0.00000000
   1.42797732    2.47332928    0.00000000
   0.00000000    1.64888618   19.90501764
Al 
8 
Direct
   0.00000000    0.00000000    0.00000000 Al
   0.37238341    0.25523319    0.11715022 Al
   0.74476681    0.51046637    0.23430044 Al
   0.11715022    0.76569956    0.35145066 Al
   0.48953363    0.02093275    0.46860088 Al
   0.86191703    0.27616593    0.58575110 Al
   0.23430044    0.53139912    0.70290132 Al
   0.60668385    0.78663230    0.82005154 Al

