
1.00000000
   2.85595465    0.00000000    0.00000000
   1.42797732    2.47332928    0.00000000
   0.00000000    1.64888618   18.85501764
Al 
8 
Direct
   0.00000000    0.00000000    0.00000000 Al
   0.37455803    0.25088394    0.12367409 Al
   0.74911606    0.50176788    0.24734819 Al
   0.12367409    0.75265181    0.37102228 Al
   0.49823212    0.00353575    0.49469637 Al
   0.87279016    0.25441969    0.61837046 Al
   0.24734819    0.50530363    0.74204456 Al
   0.62190622    0.75618757    0.86571865 Al

