
1.00000000
   2.85595465    0.00000000    0.00000000
   1.42797732    2.47332928    0.00000000
   0.00000000    1.64888618   22.15501764
Al 
8 
Direct
   0.00000000    0.00000000    0.00000000 Al
   0.36841759    0.26316481    0.10525278 Al
   0.73683519    0.52632963    0.21050556 Al
   0.10525278    0.78949444    0.31575834 Al
   0.47367037    0.05265925    0.42101112 Al
   0.84208797    0.31582407    0.52626390 Al
   0.21050556    0.57898888    0.63151668 Al
   0.57892315    0.84215369    0.73676946 Al

