
1.00000000
   1.59609453    2.76451683    0.00000000
  -1.59609453    2.76451683    0.00000000
  -0.79804727    3.22526964   20.73607828
Mg 
8 
Direct
   0.60416670    0.51041670    0.18750000 Mg
   0.31249997    0.28124997    0.06250000 Mg
   0.52083337    0.30208337    0.43750000 Mg
   0.22916663    0.07291663    0.31250000 Mg
   0.43750003    0.09375003    0.68750000 Mg
   0.14583330   -0.13541670    0.56250000 Mg
   0.35416670   -0.11458330    0.93750000 Mg
   0.06249997   -0.34375003    0.81250000 Mg

