
1.00000000
   1.59609453    2.76451683    0.00000000
  -1.59609453    2.76451683    0.00000000
   0.39902363    3.45564604   20.73607828
Mg 
8 
Direct
   0.52604170    0.57291670    0.18750000 Mg
   0.28645830    0.30208330    0.06250000 Mg
   0.33854170    0.44791670    0.43750000 Mg
   0.09895830    0.17708330    0.31250000 Mg
   0.15104170    0.32291670    0.68750000 Mg
  -0.08854170    0.05208330    0.56250000 Mg
  -0.03645830    0.19791670    0.93750000 Mg
  -0.27604170   -0.07291670    0.81250000 Mg

