
1.00000000
   1.59609453    2.76451683    0.00000000
  -1.59609453    2.76451683    0.00000000
   0.79804726    2.30376402   20.73607828
Mg 
8 
Direct
   0.54166670    0.63541670    0.18750000 Mg
   0.29166663    0.32291663    0.06250000 Mg
   0.37500003    0.59375003    0.43750000 Mg
   0.12499997    0.28124997    0.31250000 Mg
   0.20833337    0.55208337    0.68750000 Mg
  -0.04166670    0.23958330    0.56250000 Mg
   0.04166670    0.51041670    0.93750000 Mg
  -0.20833337    0.19791663    0.81250000 Mg

