
1.00000000
   2.85595465    0.00000000    0.00000000
   1.42797732    2.47332928    0.00000000
   0.00000000    1.64888618   21.65501764
Al 
8 
Direct
   0.00000000    0.00000000    0.00000000 Al
   0.36922767    0.26154467    0.10768300 Al
   0.73845533    0.52308934    0.21536599 Al
   0.10768300    0.78463401    0.32304899 Al
   0.47691066    0.04617867    0.43073199 Al
   0.84613833    0.30772334    0.53841499 Al
   0.21536599    0.56926801    0.64609798 Al
   0.58459366    0.83081268    0.75378098 Al

