
1.00000000
   1.59609453    2.76451683    0.00000000
  -1.59609453    2.76451683    0.00000000
  -1.19707090    2.99489323   20.73607828
Mg 
8 
Direct
   0.63541670    0.49479170    0.18750000 Mg
   0.32291663    0.27604163    0.06250000 Mg
   0.59375003    0.26562503    0.43750000 Mg
   0.28124997    0.04687497    0.31250000 Mg
   0.55208337    0.03645837    0.68750000 Mg
   0.23958330   -0.18229170    0.56250000 Mg
   0.51041670   -0.19270830    0.93750000 Mg
   0.19791663   -0.41145837    0.81250000 Mg

