
1.00000000
   2.85595465    0.00000000    0.00000000
   1.42797732    2.47332928    0.00000000
   0.00000000    1.64888618   19.55501764
Al 
8 
Direct
   0.00000000    0.00000000    0.00000000 Al
   0.37308233    0.25383533    0.11924700 Al
   0.74616467    0.50767067    0.23849400 Al
   0.11924700    0.76150600    0.35774100 Al
   0.49232933    0.01534133    0.47698800 Al
   0.86541167    0.26917666    0.59623500 Al
   0.23849400    0.52301200    0.71548201 Al
   0.61157634    0.77684733    0.83472901 Al

