
1.00000000
   2.85595465    0.00000000    0.00000000
   1.42797732    2.47332928    0.00000000
   0.00000000    1.64888618   20.15501764
Al 
8 
Direct
   0.00000000    0.00000000    0.00000000 Al
   0.37189904    0.25620193    0.11569711 Al
   0.74379807    0.51240386    0.23139421 Al
   0.11569711    0.76860579    0.34709132 Al
   0.48759614    0.02480772    0.46278842 Al
   0.85949518    0.28100965    0.57848553 Al
   0.23139421    0.53721158    0.69418263 Al
   0.60329325    0.79341351    0.80987974 Al

