
1.00000000
   2.85595465    0.00000000    0.00000000
   1.42797732    2.47332928    0.00000000
   0.00000000    1.64888618   26.65501764
Al 
8 
Direct
   0.00000000    0.00000000    0.00000000 Al
   0.36249454    0.27501093    0.08748361 Al
   0.72498907    0.55002185    0.17496722 Al
   0.08748361    0.82503278    0.26245083 Al
   0.44997815    0.10004370    0.34993445 Al
   0.81247269    0.37505463    0.43741806 Al
   0.17496722    0.65006555    0.52490167 Al
   0.53746176    0.92507648    0.61238528 Al

