
1.00000000
   1.59609453    2.76451683    0.00000000
  -1.59609453    2.76451683    0.00000000
  -0.53203151    2.76451683   20.73607828
Mg 
8 
Direct
   0.60416670    0.54166670    0.18750000 Mg
   0.31249997    0.29166663    0.06250000 Mg
   0.52083337    0.37500003    0.43750000 Mg
   0.22916663    0.12499997    0.31250000 Mg
   0.43750003    0.20833337    0.68750000 Mg
   0.14583330   -0.04166670    0.56250000 Mg
   0.35416670    0.04166670    0.93750000 Mg
   0.06249997   -0.20833337    0.81250000 Mg

