
1.00000000
   1.59609453    2.76451683    0.00000000
  -1.59609453    2.76451683    0.00000000
  -1.33007878    2.30376402   20.73607828
Mg 
8 
Direct
   0.66666670    0.51041670    0.18750000 Mg
   0.33333330    0.28124997    0.06250000 Mg
   0.66666670    0.30208337    0.43750000 Mg
   0.33333330    0.07291663    0.31250000 Mg
   0.66666670    0.09375003    0.68750000 Mg
   0.33333330   -0.13541670    0.56250000 Mg
   0.66666670   -0.11458330    0.93750000 Mg
   0.33333330   -0.34375003    0.81250000 Mg

