
1.00000000
   1.59609453    2.76451683    0.00000000
  -1.59609453    2.76451683    0.00000000
  -0.93105514    2.07338762   20.73607828
Mg 
8 
Direct
   0.65104170    0.54166670    0.18750000 Mg
   0.32812497    0.29166663    0.06250000 Mg
   0.63020837    0.37500003    0.43750000 Mg
   0.30729163    0.12499997    0.31250000 Mg
   0.60937503    0.20833337    0.68750000 Mg
   0.28645830   -0.04166670    0.56250000 Mg
   0.58854170    0.04166670    0.93750000 Mg
   0.26562497   -0.20833337    0.81250000 Mg

