
1.00000000
   2.85595465    0.00000000    0.00000000
   1.42797732    2.47332928    0.00000000
   0.00000000    1.64888618   21.15501764
Al 
8 
Direct
   0.00000000    0.00000000    0.00000000 Al
   0.37007603    0.25984794    0.11022809 Al
   0.74015206    0.51969588    0.22045618 Al
   0.11022809    0.77954382    0.33068427 Al
   0.48030412    0.03939176    0.44091236 Al
   0.85038015    0.29923970    0.55114045 Al
   0.22045618    0.55908764    0.66136854 Al
   0.59053221    0.81893558    0.77159664 Al

