
1.00000000
   1.59609453    2.76451683    0.00000000
  -1.59609453    2.76451683    0.00000000
   0.93105514    3.45564604   20.73607828
Mg 
8 
Direct
   0.49479170    0.60416670    0.18750000 Mg
   0.27604163    0.31249997    0.06250000 Mg
   0.26562503    0.52083337    0.43750000 Mg
   0.04687497    0.22916663    0.31250000 Mg
   0.03645837    0.43750003    0.68750000 Mg
  -0.18229170    0.14583330    0.56250000 Mg
  -0.19270830    0.35416670    0.93750000 Mg
  -0.41145837    0.06249997    0.81250000 Mg

