
1.00000000
   2.85595465    0.00000000    0.00000000
   1.42797732    2.47332928    0.00000000
   0.00000000    1.64888618   17.15501764
Al 
8 
Direct
   0.00000000    0.00000000    0.00000000 Al
   0.37864325    0.24271350    0.13592975 Al
   0.75728650    0.48542700    0.27185949 Al
   0.13592975    0.72814051    0.40778924 Al
   0.51457300   -0.02914599    0.54371899 Al
   0.89321624    0.21356751    0.67964873 Al
   0.27185949    0.45628101    0.81557848 Al
   0.65050274    0.69899451    0.95150823 Al

