
1.00000000
   1.59609453    2.76451683    0.00000000
  -1.59609453    2.76451683    0.00000000
   0.26601575    3.22526963   20.73607828
Mg 
8 
Direct
   0.54166670    0.57291670    0.18750000 Mg
   0.29166663    0.30208330    0.06250000 Mg
   0.37500003    0.44791670    0.43750000 Mg
   0.12499997    0.17708330    0.31250000 Mg
   0.20833337    0.32291670    0.68750000 Mg
  -0.04166670    0.05208330    0.56250000 Mg
   0.04166670    0.19791670    0.93750000 Mg
  -0.20833337   -0.07291670    0.81250000 Mg

