
1.00000000
   1.59609453    2.76451683    0.00000000
  -1.59609453    2.76451683    0.00000000
  -0.39902363    2.07338762   20.73607828
Mg 
8 
Direct
   0.61979170    0.57291670    0.18750000 Mg
   0.31770830    0.30208330    0.06250000 Mg
   0.55729170    0.44791670    0.43750000 Mg
   0.25520830    0.17708330    0.31250000 Mg
   0.49479170    0.32291670    0.68750000 Mg
   0.19270830    0.05208330    0.56250000 Mg
   0.43229170    0.19791670    0.93750000 Mg
   0.13020830   -0.07291670    0.81250000 Mg

