
1.00000000
   1.59609453    2.76451683    0.00000000
  -1.59609453    2.76451683    0.00000000
  -0.26601575    0.46075280   20.73607828
Mg 
8 
Direct
   0.66666670    0.63541670    0.18750000 Mg
   0.33333330    0.32291663    0.06250000 Mg
   0.66666670    0.59375003    0.43750000 Mg
   0.33333330    0.28124997    0.31250000 Mg
   0.66666670    0.55208337    0.68750000 Mg
   0.33333330    0.23958330    0.56250000 Mg
   0.66666670    0.51041670    0.93750000 Mg
   0.33333330    0.19791663    0.81250000 Mg

