
1.00000000
    2.85595465     0.00000000     0.00000000
    1.42797732     2.47332928     0.00000000
    0.00000000     1.64888618    18.55501764
Al 
8 
Direct
    0.00000000     0.00000000     0.00000000 Al
    0.37522456     0.24955089     0.12567367 Al
    0.75044911     0.49910177     0.25134734 Al
    0.12567367     0.74865266     0.37702102 Al
    0.50089823    -0.00179646     0.50269469 Al
    0.87612279     0.24775443     0.62836836 Al
    0.25134734     0.49730531     0.75404203 Al
    0.62657190     0.74685620     0.87971571 Al

