
1.00000000
   1.59609453    2.76451683    0.00000000
  -1.59609453    2.76451683    0.00000000
  -1.46308665    2.53414043   20.73607828
Mg 
8 
Direct
   0.66666670    0.49479170    0.18750000 Mg
   0.33333330    0.27604163    0.06250000 Mg
   0.66666670    0.26562503    0.43750000 Mg
   0.33333330    0.04687497    0.31250000 Mg
   0.66666670    0.03645837    0.68750000 Mg
   0.33333330   -0.18229170    0.56250000 Mg
   0.66666670   -0.19270830    0.93750000 Mg
   0.33333330   -0.41145837    0.81250000 Mg

