
1.00000000
   1.59609453    2.76451683    0.00000000
  -1.59609453    2.76451683    0.00000000
   1.06406302    3.22526963   20.73607828
Mg 
8 
Direct
   0.49479170    0.61979170    0.18750000 Mg
   0.27604163    0.31770830    0.06250000 Mg
   0.26562503    0.55729170    0.43750000 Mg
   0.04687497    0.25520830    0.31250000 Mg
   0.03645837    0.49479170    0.68750000 Mg
  -0.18229170    0.19270830    0.56250000 Mg
  -0.19270830    0.43229170    0.93750000 Mg
  -0.41145837    0.13020830    0.81250000 Mg

