
1.00000000
   2.85595465    0.00000000    0.00000000
   1.42797732    2.47332928    0.00000000
   0.00000000    1.64888618   19.25501764
Al 
8 
Direct
   0.00000000    0.00000000    0.00000000 Al
   0.37370164    0.25259673    0.12110491 Al
   0.74740327    0.50519345    0.24220982 Al
   0.12110491    0.75779018    0.36331473 Al
   0.49480655    0.01038690    0.48441965 Al
   0.86850819    0.26298363    0.60552456 Al
   0.24220982    0.51558035    0.72662947 Al
   0.61591146    0.76817708    0.84773438 Al

