
1.00000000
   1.59609453    2.76451683    0.00000000
  -1.59609453    2.76451683    0.00000000
   0.39902363    2.53414043   20.73607828
Mg 
8 
Direct
   0.55729170    0.60416670    0.18750000 Mg
   0.29687497    0.31249997    0.06250000 Mg
   0.41145837    0.52083337    0.43750000 Mg
   0.15104163    0.22916663    0.31250000 Mg
   0.26562503    0.43750003    0.68750000 Mg
   0.00520830    0.14583330    0.56250000 Mg
   0.11979170    0.35416670    0.93750000 Mg
  -0.14062503    0.06249997    0.81250000 Mg

