
1.00000000
   1.59609453    2.76451683    0.00000000
  -1.59609453    2.76451683    0.00000000
  -0.66503939    1.61263482   20.73607828
Mg 
8 
Direct
   0.65104170    0.57291670    0.18750000 Mg
   0.32812497    0.30208330    0.06250000 Mg
   0.63020837    0.44791670    0.43750000 Mg
   0.30729163    0.17708330    0.31250000 Mg
   0.60937503    0.32291670    0.68750000 Mg
   0.28645830    0.05208330    0.56250000 Mg
   0.58854170    0.19791670    0.93750000 Mg
   0.26562497   -0.07291670    0.81250000 Mg

