
1.00000000
   1.59609453    2.76451683    0.00000000
  -1.59609453    2.76451683    0.00000000
   0.39902363    4.37715165   20.73607828
Mg 
8 
Direct
   0.49479170    0.54166670    0.18750000 Mg
   0.27604163    0.29166663    0.06250000 Mg
   0.26562503    0.37500003    0.43750000 Mg
   0.04687497    0.12499997    0.31250000 Mg
   0.03645837    0.20833337    0.68750000 Mg
  -0.18229170   -0.04166670    0.56250000 Mg
  -0.19270830    0.04166670    0.93750000 Mg
  -0.41145837   -0.20833337    0.81250000 Mg

