
1.00000000
   1.59609453    2.76451683    0.00000000
  -1.59609453    2.76451683    0.00000000
  -1.33007878    2.76451683   20.73607828
Mg 
8 
Direct
   0.65104170    0.49479170    0.18750000 Mg
   0.32812497    0.27604163    0.06250000 Mg
   0.63020837    0.26562503    0.43750000 Mg
   0.30729163    0.04687497    0.31250000 Mg
   0.60937503    0.03645837    0.68750000 Mg
   0.28645830   -0.18229170    0.56250000 Mg
   0.58854170   -0.19270830    0.93750000 Mg
   0.26562497   -0.41145837    0.81250000 Mg

