
1.00000000
   1.59609453    2.76451683    0.00000000
  -1.59609453    2.76451683    0.00000000
   0.13300788    4.37715165   20.73607828
Mg 
8 
Direct
   0.51041670    0.52604170    0.18750000 Mg
   0.28124997    0.28645830    0.06250000 Mg
   0.30208337    0.33854170    0.43750000 Mg
   0.07291663    0.09895830    0.31250000 Mg
   0.09375003    0.15104170    0.68750000 Mg
  -0.13541670   -0.08854170    0.56250000 Mg
  -0.11458330   -0.03645830    0.93750000 Mg
  -0.34375003   -0.27604170    0.81250000 Mg

