
1.00000000
   2.85595465    0.00000000    0.00000000
   1.42797732    2.47332928    0.00000000
   0.00000000    1.64888618   19.05501764
Al 
8 
Direct
   0.00000000    0.00000000    0.00000000 Al
   0.37412534    0.25174932    0.12237602 Al
   0.74825068    0.50349864    0.24475204 Al
   0.12237602    0.75524796    0.36712806 Al
   0.49650136    0.00699728    0.48950408 Al
   0.87062670    0.25874660    0.61188010 Al
   0.24475204    0.51049592    0.73425612 Al
   0.61887738    0.76224524    0.85663213 Al

