
1.00000000
   2.85595465    0.00000000    0.00000000
   1.42797732    2.47332928    0.00000000
   0.00000000    1.64888618   19.35501764
Al 
8 
Direct
   0.00000000    0.00000000    0.00000000 Al
   0.37349307    0.25301386    0.12047921 Al
   0.74698614    0.50602772    0.24095842 Al
   0.12047921    0.75904158    0.36143763 Al
   0.49397228    0.01205544    0.48191683 Al
   0.86746535    0.26506931    0.60239604 Al
   0.24095842    0.51808317    0.72287525 Al
   0.61445149    0.77109703    0.84335446 Al

