
1.00000000
   2.85595465    0.00000000    0.00000000
   1.42797732    2.47332928    0.00000000
   0.00000000    1.64888618   20.40501764
Al 
8 
Direct
   0.00000000    0.00000000    0.00000000 Al
   0.37142653    0.25714693    0.11427960 Al
   0.74285307    0.51429387    0.22855920 Al
   0.11427960    0.77144080    0.34283879 Al
   0.48570613    0.02858774    0.45711839 Al
   0.85713266    0.28573467    0.57139799 Al
   0.22855920    0.54288161    0.68567759 Al
   0.59998573    0.80002854    0.79995718 Al

